# LAMMPS input script for Generation (USIC: GA00001)
# Generated on 4/21/2017z
dimension 3
units metal
atom_style atomic
boundary p p s
# ----------------------------------
## READ_DATA

# ----------------------------------
#processors 6 8 1
#read_data in.data
#read_data mos2_nocharge.data
read_data MoS2/MoS2_Min.data
neighbor  1.0 bin 
# ----------------------------------
## PAIR INTERACTION
# ----------------------------------
pair_style sw
pair_coeff * * MoS2/mos2_2013.sw Mo S S

neigh_modify delay 0 every 1 check yes

#comm_style     brick
#comm_modify    mode multi

# ----------------------------------
## VARIABLE
# ----------------------------------
variable EPot equal pe/atoms

# ----------------------------------
## THERMO_STYLE
# ----------------------------------
thermo 100
thermo_style custom step etotal atoms v_EPot
thermo_modify  format float %5.14g
#
# ----------------------------------
fix      1 all box/relax x 0.0 y 0.0 vmax 0.001


#minimize 1.0e-14 1.0e-16 10000 20000
#-----------------------------------
## WRITE_RESTART
# ----------------------------------
#run   		0
#write_data      MoS2_Min.data
#--------------------------------
